15	2	2
1544	1544	
405	403	446	
990	597	997	
534	932	1532	
118	748	748	
350	135	211	
361	353	593	
143	261	263	
463	522	618	
735	432	487	
209	411	423	
765	85	134	
547	529	976	
6	181	345	
663	496	762	
549	94	104	
